flay02h.py
Ipopt 3.12: 
==> Warning: Treating 4 binary and 0 integer variables as continous.


******************************************************************************
This program contains Ipopt, a library for large-scale nonlinear optimization.
 Ipopt is released as open source code under the Eclipse Public License (EPL).
         For more information visit http://projects.coin-or.org/Ipopt
******************************************************************************

This is Ipopt version 3.12, running with linear solver ma27.

Number of nonzeros in equality constraint Jacobian...:       44
Number of nonzeros in inequality constraint Jacobian.:       92
Number of nonzeros in Lagrangian Hessian.............:        2

Total number of variables............................:       46
                     variables with only lower bounds:       32
                variables with lower and upper bounds:       14
                     variables with only upper bounds:        0
Total number of equality constraints.................:        9
Total number of inequality constraints...............:       42
        inequality constraints with only lower bounds:        4
   inequality constraints with lower and upper bounds:        0
        inequality constraints with only upper bounds:       38

iter    objective    inf_pr   inf_du lg(mu)  ||d||  lg(rg) alpha_du alpha_pr  ls
   0  3.9999960e-02 4.85e+01 9.80e-01  -1.0 0.00e+00    -  0.00e+00 0.00e+00   0
   1  1.1835385e-01 4.76e+01 9.89e-01  -1.0 9.46e+00    -  7.92e-03 1.86e-02f  1
   2  1.9553257e+00 3.78e+01 5.13e+00  -1.0 9.31e+00    -  2.25e-02 2.59e-01f  1
   3  9.1010948e+00 1.85e+01 2.75e+00  -1.0 7.01e+00    -  2.42e-01 1.00e+00f  1
   4  1.4864858e+01 8.89e+00 4.43e-01  -1.0 2.58e+00    -  8.62e-01 1.00e+00h  1
   5  2.4411634e+01 3.33e+00 6.48e-01  -1.0 3.11e+00    -  1.35e-01 8.31e-01h  1
   6  3.0430678e+01 4.44e-16 2.87e-01  -1.0 3.36e+00    -  6.43e-01 1.00e+00h  1
   7  3.0686542e+01 1.33e-15 2.24e-02  -1.0 6.50e-01    -  1.00e+00 1.00e+00f  1
   8  2.8467944e+01 6.25e-03 5.18e-02  -2.5 6.87e-01    -  9.79e-01 8.22e-01f  1
   9  2.8327553e+01 9.71e-16 8.08e-04  -2.5 7.22e-02    -  1.00e+00 1.00e+00h  1
iter    objective    inf_pr   inf_du lg(mu)  ||d||  lg(rg) alpha_du alpha_pr  ls
  10  2.8286599e+01 8.88e-16 1.16e-05  -3.8 1.15e-02    -  1.00e+00 1.00e+00f  1
  11  2.8284304e+01 4.44e-16 7.16e-08  -5.7 6.49e-04    -  1.00e+00 1.00e+00f  1
  12  2.8284271e+01 1.33e-15 1.14e-05  -8.6 3.98e-05    -  1.00e+00 9.96e-01h  1
  13  2.8284271e+01 1.33e-15 6.60e-02  -8.6 2.95e-02    -  9.64e-01 1.00e+00f  1
  14  2.8284271e+01 1.33e-15 1.06e-01  -8.6 2.13e-03    -  1.00e+00 7.24e-01h  1
  15  2.8284271e+01 1.33e-15 2.51e-14  -8.6 5.89e-04    -  1.00e+00 1.00e+00f  1

Number of Iterations....: 15

                                   (scaled)                 (unscaled)
Objective...............:   2.8284271161638241e+01    2.8284271161638241e+01
Dual infeasibility......:   2.5091040356528538e-14    2.5091040356528538e-14
Constraint violation....:   1.3322676295501878e-15    1.3322676295501878e-15
Complementarity.........:   2.9868812079264180e-09    2.9868812079264180e-09
Overall NLP error.......:   2.9868812079264180e-09    2.9868812079264180e-09


Number of objective function evaluations             = 16
Number of objective gradient evaluations             = 16
Number of equality constraint evaluations            = 16
Number of inequality constraint evaluations          = 16
Number of equality constraint Jacobian evaluations   = 16
Number of inequality constraint Jacobian evaluations = 16
Number of Lagrangian Hessian evaluations             = 15
Total CPU secs in IPOPT (w/o function evaluations)   =      0.007
Total CPU secs in NLP function evaluations           =      0.000

EXIT: Optimal Solution Found.

Time elapsed: 0.11853909492492676